SECTION Graph
Nodes 529
Edges 1032
E 1 502 477
E 1 508 415
E 2 218 117
E 3 442 143
E 4 5 1
E 4 438 91
E 4 457 1
E 4 459 1
E 5 6 1
E 5 26 179
E 5 439 91
E 5 485 128
E 6 459 1
E 6 487 128
E 7 8 1
E 7 459 14
E 7 461 1
E 7 479 104
E 8 9 1
E 8 481 104
E 9 444 101
E 9 461 1
E 10 11 1
E 10 415 91
E 10 430 1
E 10 433 1
E 11 12 1
E 11 416 91
E 11 457 101
E 12 433 1
E 12 443 14
E 12 458 101
E 13 14 1
E 13 433 14
E 13 441 1
E 13 443 1
E 14 15 1
E 14 444 1
E 15 441 1
E 15 442 1
E 16 476 1
E 16 478 1
E 17 478 1
E 17 492 14
E 18 19 1
E 18 478 14
E 18 490 1
E 18 492 1
E 19 20 1
E 19 493 1
E 19 504 91
E 20 475 78
E 20 490 1
E 20 503 91
E 21 22 1
E 21 437 104
E 21 460 1
E 22 23 1
E 22 464 23
E 23 460 1
E 23 462 14
E 23 466 23
E 24 25 1
E 24 460 14
E 24 462 1
E 25 26 1
E 25 463 1
E 25 480 91
E 26 479 91
E 27 28 1
E 27 374 76
E 27 404 1
E 27 406 1
E 28 29 1
E 28 377 76
E 28 445 232
E 29 406 1
E 29 409 14
E 29 447 232
E 30 31 1
E 30 406 14
E 30 408 1
E 30 409 1
E 31 32 1
E 31 410 1
E 31 411 76
E 32 408 1
E 32 429 168
E 33 34 1
E 33 285 145
E 33 366 1
E 34 35 1
E 34 44 145
E 34 367 1
E 35 366 1
E 35 368 1
E 35 370 14
E 36 37 1
E 36 366 14
E 36 370 1
E 37 38 1
E 37 374 1
E 37 404 76
E 38 283 161
E 39 40 1
E 39 226 76
E 39 275 1
E 39 278 1
E 40 41 1
E 40 228 76
E 41 278 1
E 42 43 1
E 42 278 14
E 42 284 1
E 43 44 1
E 43 367 145
E 44 284 1
E 44 285 1
E 45 46 1
E 45 389 53
E 45 401 1
E 45 403 1
E 46 47 1
E 46 390 53
E 47 403 1
E 48 49 1
E 48 403 14
E 48 407 1
E 49 50 1
E 50 365 102
E 50 407 1
E 51 52 1
E 51 258 76
E 51 292 1
E 51 294 1
E 52 53 1
E 52 259 76
E 52 348 102
E 53 294 1
E 53 350 102
E 54 55 1
E 54 294 14
E 54 312 1
E 54 360 111
E 55 56 1
E 55 362 111
E 56 300 11
E 56 312 1
E 57 58 1
E 57 395 7
E 57 397 1
E 57 399 1
E 58 59 1
E 58 396 7
E 59 399 1
E 60 61 1
E 60 399 14
E 60 400 1
E 61 62 1
E 62 390 26
E 62 400 1
E 63 64 1
E 63 186 214
E 63 304 1
E 63 310 1
E 64 65 1
E 64 187 214
E 64 314 6
E 65 310 1
E 65 316 6
E 65 322 14
E 66 67 1
E 66 310 14
E 66 320 1
E 66 322 1
E 67 68 1
E 67 323 1
E 67 349 76
E 68 308 15
E 68 320 1
E 68 348 76
E 69 70 1
E 69 132 237
E 69 221 1
E 69 227 1
E 70 71 1
E 70 133 237
E 70 234 11
E 71 227 1
E 71 237 11
E 71 242 14
E 72 73 1
E 72 227 14
E 72 240 1
E 72 242 1
E 73 74 1
E 73 243 1
E 73 296 91
E 74 194 106
E 74 240 1
E 74 295 91
E 75 76 1
E 75 120 237
E 75 171 1
E 76 77 1
E 76 121 237
E 76 172 1
E 77 171 1
E 77 174 1
E 77 188 14
E 78 79 1
E 78 171 14
E 78 188 1
E 79 80 1
E 79 190 1
E 79 273 168
E 80 118 253
E 80 272 168
E 81 344 1
E 81 346 1
E 82 346 1
E 83 84 1
E 83 346 14
E 83 347 1
E 84 85 1
E 85 325 64
E 85 347 1
E 86 87 1
E 86 309 1
E 86 313 1
E 87 88 1
E 87 344 64
E 88 313 1
E 88 324 14
E 88 345 64
E 89 90 1
E 89 313 14
E 89 321 1
E 89 324 1
E 90 91 1
E 90 325 1
E 91 280 52
E 91 321 1
E 92 93 1
E 92 135 1
E 92 137 1
E 93 94 1
E 93 139 15
E 94 137 1
E 94 140 14
E 94 142 15
E 95 96 1
E 95 137 14
E 95 138 1
E 95 140 1
E 96 97 1
E 96 143 1
E 96 287 237
E 97 133 98
E 97 138 1
E 97 286 237
E 98 99 1
E 98 110 92
E 99 108 14
E 99 112 92
E 100 101 1
E 100 108 1
E 101 102 1
E 101 109 1
E 103 104 1
E 103 200 130
E 104 105 15
E 104 134 15
E 104 202 130
E 105 106 1
E 105 206 131
E 106 107 1
E 106 134 1
E 106 148 30
E 107 147 30
E 108 109 1
E 108 116 92
E 109 118 92
E 110 111 1
E 110 112 1
E 111 113 1
E 111 114 1
E 112 114 1
E 112 116 14
E 113 115 1
E 113 122 108
E 114 115 1
E 114 117 14
E 115 119 14
E 115 124 108
E 116 117 1
E 116 118 1
E 117 119 1
E 117 120 1
E 118 120 1
E 119 121 1
E 119 128 108
E 120 121 1
E 121 130 108
E 122 123 1
E 122 124 1
E 123 125 1
E 123 126 1
E 124 126 1
E 124 128 14
E 125 127 1
E 125 135 98
E 126 127 1
E 126 129 14
E 127 131 14
E 127 136 98
E 128 129 1
E 128 130 1
E 129 131 1
E 129 132 1
E 130 132 1
E 130 221 237
E 131 133 1
E 131 138 98
E 132 133 1
E 134 150 30
E 134 208 130
E 135 136 1
E 136 137 1
E 136 138 14
E 139 141 1
E 139 142 1
E 140 143 1
E 140 153 15
E 141 144 1
E 141 145 1
E 142 145 1
E 142 153 14
E 143 155 15
E 143 289 237
E 144 146 1
E 144 147 6
E 145 146 1
E 145 154 14
E 146 149 6
E 146 156 14
E 147 148 1
E 147 149 1
E 148 150 1
E 148 151 1
E 149 151 1
E 149 159 14
E 150 152 1
E 150 229 131
E 151 152 1
E 151 161 14
E 152 165 14
E 152 231 131
E 153 154 1
E 153 155 1
E 154 156 1
E 154 157 1
E 155 157 1
E 155 160 7
E 156 158 1
E 156 159 6
E 157 158 1
E 157 163 7
E 158 162 6
E 158 167 7
E 159 161 1
E 159 162 1
E 160 163 1
E 160 164 1
E 161 165 1
E 161 166 1
E 162 166 1
E 162 175 7
E 163 167 1
E 163 168 1
E 164 168 1
E 164 182 14
E 165 169 1
E 165 244 131
E 166 169 1
E 166 177 7
E 167 170 1
E 167 175 6
E 168 170 1
E 168 183 14
E 169 179 7
E 169 246 131
E 170 178 6
E 170 185 14
E 172 173 1
E 172 174 1
E 173 176 1
E 173 221 106
E 174 176 1
E 174 189 14
E 175 177 1
E 175 178 1
E 176 191 14
E 176 224 106
E 177 179 1
E 177 180 1
E 178 180 1
E 178 193 14
E 179 181 1
E 179 248 130
E 180 181 1
E 180 195 14
E 181 197 14
E 181 250 130
E 182 183 1
E 182 184 1
E 183 185 1
E 183 186 1
E 184 186 1
E 184 304 214
E 185 187 1
E 185 193 6
E 186 187 1
E 187 196 6
E 188 189 1
E 188 190 1
E 189 191 1
E 189 192 1
E 190 192 1
E 190 212 76
E 191 194 1
E 191 240 106
E 192 194 1
E 192 213 76
E 193 195 1
E 193 196 1
E 194 215 76
E 195 197 1
E 195 198 1
E 196 198 1
E 196 314 214
E 197 199 1
E 197 260 130
E 198 199 1
E 198 315 214
E 199 262 130
E 199 317 214
E 200 201 1
E 200 202 1
E 201 203 1
E 201 204 1
E 202 204 1
E 202 206 14
E 203 205 1
E 203 218 38
E 204 205 1
E 204 207 14
E 205 209 14
E 205 219 38
E 206 207 1
E 206 208 1
E 207 209 1
E 207 210 1
E 208 210 1
E 208 248 53
E 209 211 1
E 209 233 38
E 210 211 1
E 210 229 30
E 211 230 30
E 211 235 38
E 212 213 1
E 212 214 1
E 213 215 1
E 213 216 1
E 214 216 1
E 214 220 14
E 215 217 1
E 215 292 119
E 216 217 1
E 216 222 14
E 217 225 14
E 217 293 119
E 218 219 1
E 219 233 14
E 220 222 1
E 220 223 1
E 221 224 1
E 222 225 1
E 222 226 1
E 223 226 1
E 223 275 76
E 224 227 1
E 224 240 14
E 225 228 1
E 225 295 106
E 226 228 1
E 228 297 106
E 229 230 1
E 229 231 1
E 230 232 1
E 230 263 38
E 231 232 1
E 231 244 14
E 232 245 14
E 232 266 38
E 233 235 1
E 234 236 1
E 234 237 1
E 235 263 30
E 236 238 1
E 236 239 1
E 237 239 1
E 237 251 14
E 238 241 1
E 238 286 85
E 239 241 1
E 239 254 14
E 241 257 14
E 241 288 85
E 242 243 1
E 242 251 11
E 243 255 11
E 243 298 91
E 244 245 1
E 244 246 1
E 245 247 1
E 245 268 38
E 246 247 1
E 246 249 7
E 247 252 7
E 247 269 38
E 248 249 1
E 248 250 1
E 249 252 1
E 249 253 1
E 250 253 1
E 250 260 14
E 251 254 1
E 251 255 1
E 252 256 1
E 252 270 38
E 253 256 1
E 253 261 14
E 254 257 1
E 254 258 1
E 255 258 1
E 255 292 76
E 256 264 14
E 256 271 38
E 257 259 1
E 257 301 85
E 258 259 1
E 259 303 85
E 260 261 1
E 260 262 1
E 261 264 1
E 261 265 1
E 262 265 1
E 262 379 214
E 263 266 1
E 264 267 1
E 264 279 38
E 265 267 1
E 265 380 214
E 266 268 14
E 267 280 38
E 267 382 214
E 268 269 1
E 269 270 7
E 270 271 1
E 270 309 52
E 271 279 14
E 271 311 52
E 272 273 1
E 272 274 1
E 273 275 1
E 273 276 1
E 274 276 1
E 274 281 14
E 275 277 1
E 276 277 1
E 276 282 14
E 277 278 1
E 277 284 14
E 279 280 1
E 279 321 52
E 281 282 1
E 281 283 1
E 282 284 1
E 282 285 1
E 283 285 1
E 286 287 1
E 286 288 1
E 287 289 1
E 287 290 1
E 288 290 1
E 288 301 14
E 289 291 1
E 289 304 15
E 290 291 1
E 290 302 14
E 291 305 14
E 291 307 15
E 292 293 1
E 293 294 1
E 293 312 14
E 295 296 1
E 295 297 1
E 296 298 1
E 296 299 1
E 297 299 1
E 298 300 1
E 298 312 11
E 299 300 1
E 301 302 1
E 301 303 1
E 302 305 1
E 302 306 1
E 303 306 1
E 304 307 1
E 305 308 1
E 305 320 15
E 306 308 1
E 307 310 1
E 307 320 14
E 309 311 1
E 311 313 1
E 311 321 14
E 314 315 1
E 314 316 1
E 315 317 1
E 315 318 1
E 316 318 1
E 316 326 14
E 317 319 1
E 317 379 130
E 318 319 1
E 318 327 14
E 319 329 14
E 319 381 130
E 322 323 1
E 322 326 6
E 323 328 6
E 323 351 76
E 324 325 1
E 324 347 64
E 326 327 1
E 326 328 1
E 327 329 1
E 327 330 1
E 328 330 1
E 328 332 7
E 329 331 1
E 329 391 130
E 330 331 1
E 330 333 7
E 331 335 7
E 331 393 130
E 332 333 1
E 332 334 1
E 333 335 1
E 333 336 1
E 334 336 1
E 334 338 14
E 335 337 1
E 335 369 102
E 336 337 1
E 336 339 14
E 337 341 14
E 337 372 102
E 338 339 1
E 338 340 1
E 339 341 1
E 339 342 1
E 340 342 1
E 340 354 53
E 341 343 1
E 341 385 102
E 342 343 1
E 342 355 53
E 343 357 53
E 343 387 102
E 344 345 1
E 345 346 1
E 345 347 14
E 348 349 1
E 348 350 1
E 349 351 1
E 349 352 1
E 350 352 1
E 351 353 1
E 351 354 6
E 352 353 1
E 353 356 6
E 354 355 1
E 354 356 1
E 355 357 1
E 355 358 1
E 356 358 1
E 356 360 14
E 357 359 1
E 357 401 102
E 358 359 1
E 358 361 14
E 359 363 14
E 359 402 102
E 360 361 1
E 360 362 1
E 361 363 1
E 361 364 1
E 362 364 1
E 362 417 237
E 363 365 1
E 363 407 102
E 364 365 1
E 364 418 237
E 365 420 237
E 367 368 1
E 367 417 232
E 368 373 14
E 368 419 232
E 369 371 1
E 369 372 1
E 370 373 1
E 370 374 1
E 371 375 1
E 371 376 1
E 372 376 1
E 372 385 14
E 373 377 1
E 373 423 232
E 374 377 1
E 375 378 1
E 375 397 26
E 376 378 1
E 376 386 14
E 377 425 232
E 378 388 14
E 378 398 26
E 379 380 1
E 379 381 1
E 380 382 1
E 380 383 1
E 381 383 1
E 381 391 14
E 382 384 1
E 383 384 1
E 383 392 14
E 384 394 14
E 385 386 1
E 385 387 1
E 386 388 1
E 386 389 1
E 387 389 1
E 387 401 53
E 388 390 1
E 388 400 26
E 389 390 1
E 391 392 1
E 391 393 1
E 392 394 1
E 392 395 1
E 393 395 1
E 393 397 7
E 394 396 1
E 395 396 1
E 397 398 1
E 398 399 1
E 398 400 14
E 401 402 1
E 402 403 1
E 402 407 14
E 404 405 1
E 405 406 1
E 405 408 14
E 409 410 1
E 409 451 232
E 410 412 76
E 410 453 232
E 411 412 1
E 411 413 1
E 412 414 1
E 412 415 1
E 413 415 1
E 413 430 91
E 414 416 1
E 414 434 101
E 415 416 1
E 416 436 101
E 417 418 1
E 417 419 1
E 418 420 1
E 418 421 1
E 419 421 1
E 419 423 14
E 420 422 1
E 421 422 1
E 421 424 14
E 422 426 14
E 423 424 1
E 423 425 1
E 424 426 1
E 424 427 1
E 425 427 1
E 425 445 76
E 426 428 1
E 427 428 1
E 427 446 76
E 428 448 76
E 429 430 1
E 429 431 1
E 430 432 1
E 431 432 1
E 431 440 14
E 432 433 1
E 432 441 14
E 434 435 1
E 434 436 1
E 435 437 1
E 435 438 1
E 436 438 1
E 436 457 91
E 437 439 1
E 438 439 1
E 439 460 104
E 440 441 1
E 440 442 1
E 443 444 1
E 443 461 101
E 445 446 1
E 445 447 1
E 446 448 1
E 446 449 1
E 447 449 1
E 447 451 14
E 448 450 1
E 449 450 1
E 449 452 14
E 450 454 14
E 451 452 1
E 451 453 1
E 452 454 1
E 452 455 1
E 453 455 1
E 453 464 76
E 454 456 1
E 455 456 1
E 455 465 76
E 456 467 76
E 457 458 1
E 458 459 1
E 458 461 14
E 462 463 1
E 462 470 23
E 463 472 23
E 463 482 91
E 464 465 1
E 464 466 1
E 465 467 1
E 465 468 1
E 466 468 1
E 466 470 14
E 467 469 1
E 467 476 78
E 468 469 1
E 468 471 14
E 469 473 14
E 469 477 78
E 470 471 1
E 470 472 1
E 471 473 1
E 471 474 1
E 472 474 1
E 472 485 76
E 473 475 1
E 473 490 78
E 474 475 1
E 474 486 76
E 475 488 76
E 476 477 1
E 477 478 1
E 477 490 14
E 479 480 1
E 479 481 1
E 480 482 1
E 480 483 1
E 481 483 1
E 482 484 1
E 482 494 23
E 483 484 1
E 484 496 23
E 485 486 1
E 485 487 1
E 486 488 1
E 486 489 1
E 487 489 1
E 487 494 14
E 488 491 1
E 489 491 1
E 489 495 14
E 491 497 14
E 492 493 1
E 493 506 91
E 494 495 1
E 494 496 1
E 495 497 1
E 495 498 1
E 496 498 1
E 496 500 18
E 497 499 1
E 497 503 78
E 498 499 1
E 498 501 18
E 499 502 18
E 499 505 78
E 500 501 1
E 501 502 1
E 503 504 1
E 503 505 1
E 504 506 1
E 504 507 1
E 505 507 1
E 506 508 1
E 507 508 1
E 1 509 100000
E 2 510 100000
E 3 511 100000
E 4 512 100000
E 5 512 100000
E 6 512 100000
E 7 512 100000
E 8 512 100000
E 9 512 100000
E 10 513 100000
E 11 513 100000
E 12 513 100000
E 13 513 100000
E 14 513 100000
E 15 513 100000
E 16 514 100000
E 17 514 100000
E 18 514 100000
E 19 514 100000
E 20 514 100000
E 21 515 100000
E 22 515 100000
E 23 515 100000
E 24 515 100000
E 25 515 100000
E 26 515 100000
E 27 516 100000
E 28 516 100000
E 29 516 100000
E 30 516 100000
E 31 516 100000
E 32 516 100000
E 33 517 100000
E 34 517 100000
E 35 517 100000
E 36 517 100000
E 37 517 100000
E 38 517 100000
E 39 518 100000
E 40 518 100000
E 41 518 100000
E 42 518 100000
E 43 518 100000
E 44 518 100000
E 45 519 100000
E 46 519 100000
E 47 519 100000
E 48 519 100000
E 49 519 100000
E 50 519 100000
E 51 520 100000
E 52 520 100000
E 53 520 100000
E 54 520 100000
E 55 520 100000
E 56 520 100000
E 57 521 100000
E 58 521 100000
E 59 521 100000
E 60 521 100000
E 61 521 100000
E 62 521 100000
E 63 522 100000
E 64 522 100000
E 65 522 100000
E 66 522 100000
E 67 522 100000
E 68 522 100000
E 69 523 100000
E 70 523 100000
E 71 523 100000
E 72 523 100000
E 73 523 100000
E 74 523 100000
E 75 524 100000
E 76 524 100000
E 77 524 100000
E 78 524 100000
E 79 524 100000
E 80 524 100000
E 81 525 100000
E 82 525 100000
E 83 525 100000
E 84 525 100000
E 85 525 100000
E 86 526 100000
E 87 526 100000
E 88 526 100000
E 89 526 100000
E 90 526 100000
E 91 526 100000
E 92 527 100000
E 93 527 100000
E 94 527 100000
E 95 527 100000
E 96 527 100000
E 97 527 100000
E 98 528 100000
E 99 528 100000
E 100 528 100000
E 101 528 100000
E 102 528 100000
E 103 529 100000
E 104 529 100000
E 105 529 100000
E 106 529 100000
E 107 529 100000
END

SECTION Terminals
Terminals 21
T 509
T 510
T 511
T 512
T 513
T 514
T 515
T 516
T 517
T 518
T 519
T 520
T 521
T 522
T 523
T 524
T 525
T 526
T 527
T 528
T 529
END

SECTION Tree Decomposition
c We do not guarantee that this tree decomposition has minimum width.
s td 437 24 529
b 1 509 1
b 2 510 2
b 3 511 3
b 4 2 218
b 5 3 442
b 6 102 101 528
b 7 1 502 508
b 8 442 440 15
b 9 500 501 496
b 10 218 203 219
b 11 82 525 346
b 12 49 48 50 519
b 13 61 60 62 521
b 14 84 525 83 85
b 15 100 101 528 108
b 16 101 109 528 108
b 17 103 529 200 104
b 18 107 529 106 147
b 19 98 528 99 110
b 20 109 528 108 118
b 21 440 441 15 431
b 22 501 498 502 496
b 23 38 517 37 283
b 24 41 40 278 518
b 25 47 46 519 403
b 26 203 219 205 201
b 27 219 205 201 233
b 28 59 521 399 58
b 29 506 504 508 493
b 30 123 125 126 122
b 31 344 81 345 87
b 32 350 352 348 53
b 33 353 352 351 356
b 34 366 33 36 35
b 35 369 371 335 372
b 36 375 371 378 397
b 37 382 380 267 384
b 38 396 394 395 58
b 39 492 17 18 493
b 40 404 405 27 37
b 41 408 405 30 32
b 42 411 413 412 31
b 43 414 416 434 412
b 44 420 422 418 365
b 45 426 422 424 428
b 46 429 431 430 32
b 47 435 437 434 438
b 48 111 110 114 113
b 49 444 14 443 9
b 50 448 446 450 428
b 51 454 456 450 452
b 52 481 483 8 479
b 53 484 483 482 496
b 54 476 16 477 467
b 55 488 491 486 475
b 56 505 507 499 503
b 57 135 125 136 92
b 58 139 141 142 93
b 59 144 141 146 147
b 60 160 155 163 164
b 61 171 75 78 77
b 62 172 173 174 76
b 63 182 184 183 164
b 64 212 214 190 213
b 65 220 223 222 214
b 66 234 236 237 70
b 67 235 233 211 263
b 68 238 236 241 286
b 69 266 268 232 263
b 70 269 268 247 270
b 71 272 274 80 273
b 72 280 91 279 267
b 73 281 274 282 283
b 74 297 299 295 228
b 75 300 299 56 298
b 76 303 306 301 259
b 77 308 306 68 305
b 78 309 86 311 270
b 79 325 85 324 90
b 80 332 333 334 328
b 81 338 340 339 334
b 82 525 83 346 81 85
b 83 83 346 81 347 85
b 84 346 81 347 345 85
b 85 81 347 345 85 87
b 86 347 345 85 324 87
b 87 345 85 324 87 88
b 88 85 324 87 88 90
b 89 324 87 88 90 89
b 90 507 504 508 499 503
b 91 40 39 228 278 518
b 92 46 519 403 45 390
b 93 205 201 204 209 233
b 94 17 478 514 18 493
b 95 201 204 209 233 200
b 96 528 99 108 110 118
b 97 99 108 112 110 118
b 98 108 112 110 116 118
b 99 112 110 116 114 118
b 100 110 116 114 113 118
b 101 116 114 113 117 118
b 102 114 113 117 115 118
b 103 113 117 115 118 122
b 104 87 88 526 90 89 86
b 105 88 526 90 89 313 86
b 106 526 90 89 313 86 91
b 107 89 313 86 321 91
b 108 313 86 321 311 91
b 109 86 321 311 91 270
b 110 321 311 91 279 270
b 111 311 91 279 271 270
b 112 91 279 271 270 267
b 113 279 271 264 270 267
b 114 271 264 256 270 267
b 115 264 256 270 261 267
b 116 394 395 58 384 392
b 117 498 502 499 495 496
b 118 502 508 499 495 496
b 119 413 415 430 412 31
b 120 105 529 206 104 106
b 121 441 15 431 432 13
b 122 437 439 21 434 438
b 123 456 455 467 450 452
b 124 491 489 486 475 497
b 125 22 21 515 23 464
b 126 43 42 44 367 518
b 127 48 50 519 403 407
b 128 50 519 403 407 365
b 129 173 174 76 176 221
b 130 184 186 304 183 164
b 131 340 339 334 342 354
b 132 223 226 222 214 275
b 133 60 62 521 399 400
b 134 62 521 399 400 390
b 135 16 478 514 477 467
b 136 55 520 54 56 362
b 137 478 514 18 477 493 467
b 138 519 403 407 45 390 365
b 139 403 407 402 45 390 365
b 140 407 402 45 363 390 365
b 141 521 399 400 57 58 390
b 142 399 400 398 57 58 390
b 143 400 388 398 57 58 390
b 144 15 431 432 13 513 14
b 145 24 460 515 25 462
b 146 26 515 25 5 479
b 147 6 459 512 5 487
b 148 529 200 206 104 106 147
b 149 415 430 10 416 412 31
b 150 117 115 118 119 120 122
b 151 115 118 119 120 122 124
b 152 118 119 120 122 124 80
b 153 33 517 36 35 34 285
b 154 42 44 284 367 278 518
b 155 204 209 233 202 207 200
b 156 209 233 202 207 211 200
b 157 233 202 207 211 200 263
b 158 226 39 222 214 228 275
b 159 504 508 499 503 493 19
b 160 256 252 253 270 261 267
b 161 75 524 78 77 76 120
b 162 202 207 211 200 206 104 263
b 163 207 211 200 206 104 210 263
b 164 211 200 206 104 210 230 263
b 165 349 352 348 67 351
b 166 352 348 53 67 351 356
b 167 343 341 342 357 387
b 168 355 342 357 358 354
b 169 359 402 363 357 358
b 170 360 54 362 356 361
b 171 368 35 373 419 367
b 172 370 36 35 373 374
b 173 376 371 378 372 386
b 174 371 378 397 335 372 386
b 175 383 380 381 384 392
b 176 391 393 329 381 392
b 177 421 422 424 419 418
b 178 422 424 428 419 418 365
b 179 389 45 387 390 386
b 180 410 412 453 31 409
b 181 425 445 377 423 427
b 182 485 486 472 5 487
b 183 128 119 130 124 129
b 184 121 119 130 76 120
b 185 490 18 477 473 20
b 186 480 483 482 25 479
b 187 483 482 496 25 8 479
b 188 474 486 475 471 472
b 189 470 466 471 472 462
b 190 406 405 27 30 29
b 191 405 27 30 29 32 37
b 192 451 453 452 409 447
b 193 337 336 341 335 372
b 194 131 127 138 129 133
b 195 132 130 129 69 133
b 196 134 104 106 150 208
b 197 137 136 95 92 94
b 198 140 95 94 143 153
b 199 331 393 335 330 329
b 200 145 141 142 146 154
b 201 141 142 93 146 147 154
b 202 148 106 150 151 147
b 203 149 151 159 146 147
b 204 379 380 262 317 381
b 205 152 150 231 165 151
b 206 156 159 158 146 154
b 207 323 322 328 67 351
b 208 157 155 163 158 154
b 209 318 319 315 316 327
b 210 320 307 66 68 305
b 211 161 165 151 166 159
b 212 162 166 159 158 175
b 213 167 163 170 158 175
b 214 168 163 170 183 164
b 215 169 246 165 166 179
b 216 436 416 457 434 438
b 217 469 477 473 467 468
b 218 177 166 179 175 180
b 219 178 193 170 175 180
b 220 181 179 250 180 197
b 221 185 193 170 183 187
b 222 188 78 77 189 190
b 223 191 194 240 189 176
b 224 192 194 189 190 213
b 225 494 495 482 496 487
b 226 195 193 180 197 198
b 227 196 193 187 198 314
b 228 199 262 197 198 317
b 229 401 402 45 357 387
b 230 385 341 387 372 386
b 231 364 418 362 361 365
b 232 217 216 225 215 293
b 233 224 227 240 176 221
b 234 229 210 150 231 230
b 235 417 419 418 367 362
b 236 465 455 464 467 468
b 237 239 236 237 241 254
b 238 236 237 241 254 70 286
b 239 291 307 289 290 305
b 240 292 255 51 215 293
b 241 242 243 251 71 72
b 242 244 245 231 246 165
b 243 248 208 249 179 250
b 244 257 301 241 254 259
b 245 258 254 259 255 51
b 246 260 262 261 250 197
b 247 265 380 262 261 267
b 248 463 472 482 25 462
b 249 461 443 458 9 7
b 250 276 274 282 277 273
b 251 274 282 277 283 80 273
b 252 287 96 289 286 290
b 253 288 301 241 286 290
b 254 296 299 295 73 298
b 255 299 295 228 56 73 298
b 256 294 54 53 51 293
b 257 302 306 301 290 305
b 258 306 301 259 68 290 305
b 259 312 54 56 293 298
b 260 310 63 307 65 66
b 261 433 432 13 12 10
b 262 449 446 450 452 447
b 263 326 322 316 327 328
b 264 439 21 460 5 434 438
b 265 125 126 127 136 92 122
b 266 339 334 336 341 342 354
b 267 174 77 76 189 176 221
b 268 489 486 475 497 495 487
b 269 186 304 63 183 164 187
b 270 395 57 58 393 384 392
b 271 268 232 245 263 247 270
b 272 524 78 79 77 76 120 80
b 273 126 127 136 92 122 124 129
b 274 378 397 388 398 335 372 386
b 275 142 93 94 146 147 153 154
b 276 39 222 214 228 278 275 518
b 277 508 499 503 493 19 495 496
b 278 499 503 493 19 497 495 496
b 279 503 493 19 20 497 495 496
b 280 514 18 477 493 19 20 467
b 281 18 477 473 493 19 20 467
b 282 477 473 493 19 20 467 468
b 283 232 245 231 230 263 247 270
b 284 517 36 35 37 34 283 285
b 285 78 79 77 76 120 189 80 190
b 286 79 77 76 120 189 80 190 273
b 287 200 206 104 210 106 230 263 147
b 288 206 104 210 106 230 263 208 147
b 289 104 210 106 150 230 263 208 147
b 290 210 106 150 231 230 263 208 147
b 291 106 150 231 230 263 208 151 147
b 292 150 231 230 263 208 165 151 147
b 293 333 334 336 335 330 328
b 294 431 432 13 513 14 430 32
b 295 432 13 513 14 12 430 10 32
b 296 13 513 14 12 443 430 10 32
b 297 513 14 12 443 11 430 10 32
b 298 14 12 443 11 430 10 9 32
b 299 12 443 11 458 430 10 9 32
b 300 443 11 458 430 10 9 7 32
b 301 348 53 67 52 68 351 356
b 302 304 63 307 183 164 187 289
b 303 455 464 467 468 453 450 452
b 304 424 423 427 428 419 418 365
b 305 44 284 34 285 367 278 518
b 306 295 225 228 56 73 74 298
b 307 237 241 254 251 70 71 286
b 308 252 253 247 249 270 261 267
b 309 253 247 249 270 261 250 267
b 310 282 277 284 283 285 80 273
b 311 245 231 230 263 246 165 247 270
b 312 36 35 37 373 374 34 283 285
b 313 127 136 138 92 122 124 129 133
b 314 397 388 398 57 393 335 372 386
b 315 388 398 57 58 393 390 335 372 386
b 316 277 284 283 285 278 275 80 273
b 317 28 516 27 29 445 377
b 318 64 522 63 187 65 314
b 319 446 450 452 447 445 427 428
b 320 216 222 214 225 213 215 293
b 321 319 315 316 327 329 317 381
b 322 402 45 363 357 387 358 390 365
b 323 45 363 357 387 358 390 386 365
b 324 363 357 387 358 390 386 361 365
b 325 334 336 341 342 354 335 330 328
b 326 336 341 342 354 335 372 330 328
b 327 473 493 19 20 475 471 467 468
b 328 516 27 30 29 31 32 445 377
b 329 315 316 327 329 198 314 317 381
b 330 301 241 254 259 68 286 290 305
b 331 93 92 94 527 146 147 153 154
b 332 57 58 393 390 335 372 386 384 392
b 333 27 30 29 31 32 445 377 37 374
b 334 30 29 31 32 409 445 377 37 374
b 335 29 31 32 409 447 445 377 37 374
b 336 77 76 120 189 176 221 80 190 273
b 337 35 37 373 374 419 34 283 285 367
b 338 97 138 96 527 133 286
b 339 4 457 459 512 5 438
b 340 155 163 158 164 143 153 154
b 341 466 471 472 23 462 464 468
b 342 119 130 76 120 122 124 129 80
b 343 486 475 497 495 471 472 5 487
b 344 21 460 515 23 5 434 438 464
b 345 460 515 23 25 462 5 434 438 464
b 346 515 23 25 462 5 434 438 479 464
b 347 11 458 430 10 9 7 416 457 32
b 348 458 430 10 9 7 416 457 459 32
b 349 136 138 95 92 94 122 124 129 133
b 350 231 230 263 208 246 165 151 247 270 147
b 351 430 10 9 7 416 457 459 412 31 32
b 352 520 54 53 56 362 51 52
b 353 243 251 255 71 72 73 298
b 354 227 240 176 221 69 71 72
b 355 522 63 187 65 66 314 67 68
b 356 9 7 416 457 459 512 8 412 31 32
b 357 7 416 457 459 512 8 479 412 31 32
b 358 416 457 459 512 8 434 438 479 412 31 32
b 359 457 459 512 5 8 434 438 479 412 31 32
b 360 459 512 5 8 434 438 479 487 412 31 32
b 361 493 19 20 475 497 495 471 496 467 468
b 362 475 497 495 471 472 496 5 487 467 468
b 363 495 471 472 482 496 5 487 467 468
b 364 284 34 283 285 367 278 275 518 80 273
b 365 471 472 482 496 23 462 5 487 464 467 468
b 366 472 482 496 23 25 462 5 487 464 467 468
b 367 482 496 23 25 462 5 8 479 487 464 467 468
b 368 23 25 462 5 8 434 438 479 487 464 467 468
b 369 5 8 434 438 479 487 412 464 467 468 31 32
b 370 412 464 467 468 453 31 32 409
b 371 464 467 468 453 450 452 31 32 409
b 372 453 450 452 31 32 409 447
b 373 450 452 31 32 409 447 445 427 428
b 374 31 32 409 447 445 377 427 428 37 374
b 375 445 377 423 427 428 37 374
b 376 377 423 427 428 37 373 374
b 377 423 427 428 37 373 374 419 418 365
b 378 37 373 374 419 418 34 283 285 367 365
b 379 419 418 34 283 285 367 362 365
b 380 418 34 283 285 367 362 361 365
b 381 523 70 69 71 72 73 74
b 382 380 262 261 267 317 381 384 392
b 383 208 246 165 151 247 249 270 179 250 147
b 384 246 165 151 247 249 270 166 179 250 147
b 385 165 151 247 249 270 166 179 159 250 147
b 386 151 247 249 270 166 179 159 250 146 147
b 387 247 249 270 166 179 159 261 250 267 146 147
b 388 322 316 327 328 65 66 67 351
b 389 163 170 158 175 183 164 143 153 154
b 390 130 76 120 221 122 124 129 69 80 133
b 391 341 342 357 387 354 335 372 386 330 328
b 392 342 357 387 358 354 335 372 386 330 328
b 393 241 254 259 251 70 68 71 286 290 305
b 394 254 259 251 255 70 51 68 71 286 290 305
b 395 259 251 255 70 51 52 68 71 286 290 305
b 396 194 240 189 176 74 190 213 215
b 397 262 261 250 267 197 198 317 381 384 392
b 398 393 390 335 372 386 330 329 381 384 392
b 399 357 387 358 354 390 335 372 386 330 328 361 365
b 400 358 354 390 335 372 386 330 328 356 361 365
b 401 354 390 335 372 386 330 328 351 356 361 365
b 402 138 95 96 92 94 527 122 124 129 133 286
b 403 95 96 92 94 527 143 153 122 124 129 133 286
b 404 222 214 225 228 278 275 518 213 215 293
b 405 214 225 228 278 275 518 190 213 215 293
b 406 240 189 176 221 69 71 72 74 190 213 215
b 407 34 283 285 367 278 275 518 362 80 273 361 365
b 408 193 170 175 180 197 183 187 198 314
b 409 54 53 56 362 51 52 293 298 356 361
b 410 166 179 159 261 250 267 158 175 180 146 147
b 411 179 159 261 250 267 158 175 180 197 146 147
b 412 159 261 250 267 158 175 180 197 146 147 154
b 413 53 56 362 67 51 52 68 293 298 351 356 361
b 414 63 307 183 164 187 65 66 314 289 67 68
b 415 307 183 164 187 65 66 314 289 67 68 290 305
b 416 96 92 94 527 143 153 289 122 124 129 133 286 290
b 417 251 255 70 51 52 68 71 72 73 286 290 298 305
b 418 255 70 51 52 68 71 72 73 215 286 290 293 298 305
b 419 76 120 189 176 221 122 124 129 69 80 133 190 273
b 420 390 335 372 386 330 328 329 381 384 392 351 356 361 365
b 421 330 327 328 329 381 384 392 351 356 361 365
b 422 316 327 328 329 65 66 198 314 317 381 67 351
b 423 225 228 278 275 518 56 73 74 190 213 215 293 298
b 424 92 94 527 143 146 147 153 154 289 122 124 129 133 286 290
b 425 170 158 175 180 197 183 164 187 198 314 143 153 154
b 426 327 328 329 65 66 198 314 317 381 384 392 67 351 356 361 365
b 427 70 51 52 68 69 71 72 73 74 133 215 286 290 293 298 305
b 428 261 250 267 158 175 180 197 198 317 381 384 392 146 147 154
b 429 158 175 180 197 183 164 187 198 314 317 381 384 392 143 146 147 153 154
b 430 189 176 221 122 124 129 69 71 72 74 80 133 190 213 215 273
b 431 278 275 518 56 362 73 74 80 190 213 215 273 293 298 361 365
b 432 56 362 67 51 52 68 73 74 80 190 213 215 273 293 298 351 356 361 365
b 433 183 164 187 65 66 198 314 317 381 384 392 143 146 147 153 154 289 67 68 290 305
b 434 65 66 198 314 317 381 384 392 143 146 147 153 154 289 67 68 290 305 351 356 361 365
b 435 143 146 147 153 154 289 122 124 129 67 68 133 286 290 305 351 356 361 365
b 436 122 124 129 67 68 69 71 72 74 80 133 190 213 215 273 286 290 305 351 356 361 365
b 437 67 51 52 68 69 71 72 73 74 80 133 190 213 215 273 286 290 293 298 305 351 356 361 365
1 7
7 118
118 117
118 277
277 278
278 279
279 361
361 327
361 362
362 363
363 365
365 366
366 367
367 368
368 369
369 360
360 359
359 358
358 357
357 356
368 346
356 351
346 345
351 348
348 347
345 344
347 300
300 299
299 298
298 297
297 296
296 295
362 343
369 370
370 371
327 282
295 294
371 303
282 281
371 372
372 373
373 374
374 335
335 334
334 333
333 328
373 319
374 375
365 341
375 376
376 377
377 304
377 378
378 337
378 379
337 312
379 380
380 407
407 364
407 431
431 432
432 437
437 436
437 427
436 430
436 435
435 434
434 433
433 429
434 426
427 418
435 424
429 425
429 428
418 417
424 416
432 413
431 423
430 419
433 415
426 422
416 403
430 406
426 421
428 412
417 395
415 414
403 402
421 420
412 411
395 394
420 401
411 410
401 400
400 399
428 397
423 405
413 409
419 390
420 398
394 393
399 392
405 404
392 391
425 389
425 408
419 336
402 349
410 387
387 386
386 385
385 384
384 383
364 316
424 331
422 388
422 329
406 396
414 355
399 324
397 382
390 342
398 332
393 330
391 326
336 286
349 313
383 350
350 292
350 311
292 291
291 290
290 289
289 288
288 287
324 323
323 322
332 315
315 314
326 325
286 285
311 283
287 164
314 274
285 272
164 163
163 162
364 305
312 284
427 381
417 353
413 301
423 306
406 354
414 302
409 352
281 280
393 307
404 276
404 320
389 340
387 309
309 308
316 310
331 275
329 321
313 273
325 266
325 293
283 271
274 174
272 161
162 157
305 154
284 153
301 166
306 255
302 269
280 137
307 238
276 158
333 191
287 148
322 140
308 160
310 251
275 201
315 143
273 265
157 156
140 139
328 317
143 142
156 155
139 138
142 141
304 178
367 187
359 339
277 159
351 149
344 264
402 338
343 268
336 267
294 144
355 318
342 152
152 151
151 150
332 270
330 258
291 202
290 234
289 196
366 248
323 179
322 169
322 229
285 222
353 241
354 233
352 136
276 91
320 232
340 208
266 131
174 173
319 262
154 126
166 165
255 254
269 130
375 181
137 135
137 94
238 237
158 132
191 190
341 189
148 120
160 115
251 250
201 200
155 95
138 92
138 128
141 134
292 205
268 124
178 177
149 119
267 129
372 192
144 121
159 90
187 186
321 209
150 103
270 116
311 242
258 257
337 171
379 235
115 114
95 93
128 127
312 172
134 133
380 231
103 102
114 113
102 101
113 112
101 100
112 111
100 99
111 110
99 98
110 109
98 97
109 108
97 96
108 107
107 106
106 105
105 104
104 89
89 88
88 87
87 86
86 85
85 84
84 83
83 82
360 147
370 180
358 216
344 125
418 240
346 146
416 252
345 145
415 210
415 239
403 198
412 206
300 249
414 260
411 220
394 245
410 212
410 218
363 225
397 246
397 228
409 170
409 256
409 259
264 122
295 261
390 195
343 182
398 199
398 176
343 188
392 168
391 167
391 230
389 213
389 214
408 219
408 221
408 226
408 227
349 197
386 203
385 211
384 215
383 243
282 217
388 207
388 263
396 223
396 224
303 123
303 236
382 175
382 204
382 247
342 183
342 184
330 253
330 244
281 185
326 193
313 194
117 22
284 23
340 60
293 80
271 69
271 70
174 35
174 36
319 50
161 61
157 67
153 34
166 32
166 33
255 74
255 75
238 66
238 68
191 40
191 41
148 18
148 17
251 71
251 73
201 58
201 59
265 30
265 57
141 28
121 21
178 44
178 45
258 76
258 77
91 24
131 81
135 54
94 39
132 65
92 25
124 55
119 42
129 62
90 56
116 38
112 72
93 27
100 48
127 12
133 13
109 78
96 19
96 20
88 79
130 63
122 47
123 51
27 26
20 16
16 15
82 14
187 52
159 29
358 43
85 31
187 53
298 49
405 64
294 46
382 37
22 9
21 8
16 6
26 10
82 11
8 5
5 3
10 4
4 2
END

EOF
